unsat
(:SPACER-conj                         7
 :SPACER-inductive-gen                23
 :SPACER-inductive-gen-weaken-fail    31
 :SPACER-inductive-level              9
 :SPACER-max-depth                    14
 :SPACER-max-query-lvl                14
 :SPACER-non-local-gen                31
 :SPACER-num-active-lemmas            19
 :SPACER-num-ctp-blocked              40
 :SPACER-num-invariants               8
 :SPACER-num-is_invariant             67
 :SPACER-num-lemma-jumped             1
 :SPACER-num-lemmas                   65
 :SPACER-num-pobs                     16
 :SPACER-num-propagations             5
 :SPACER-num-queries                  41
 :added-eqs                           3154
 :arith-assert-diseq                  468
 :arith-assert-lower                  4700
 :arith-assert-upper                  3888
 :arith-bound-prop                    188
 :arith-conflicts                     56
 :arith-eq-adapter                    368
 :arith-fixed-eqs                     578
 :arith-num-rows                      40
 :arith-offset-eqs                    360
 :arith-pivots                        484
 :arith-row-summations                2430
 :arith-tableau-max-columns           86
 :arith-tableau-max-rows              40
 :conflicts                           520
 :decisions                           3584
 :del-clause                          608
 :final-checks                        178
 :iuc_solver.num_proxies              45
 :max-memory                          31.74
 :memory                              31.33
 :minimized-lits                      6
 :mk-bool-var                         2462
 :mk-clause                           1226
 :num-allocs                          26569912
 :num-checks                          536
 :pool_solver.checks                  268
 :pool_solver.checks.sat              87
 :pool_solver.checks.undef            2
 :propagations                        19170
 :rlimit-count                        136760
 :time                                0.16
 :time.iuc_solver.get_iuc             0.03
 :time.iuc_solver.get_iuc.hyp_reduce1 0.01
 :time.iuc_solver.get_iuc.hyp_reduce2 0.01
 :time.iuc_solver.get_iuc.learn_core  0.01
 :time.pool_solver.proof              0.01
 :time.pool_solver.smt.total          0.05
 :time.pool_solver.smt.total.sat      0.02
 :time.spacer.ctp                     0.00
 :time.spacer.init_rules              0.00
 :time.spacer.mbp                     0.00
 :time.spacer.solve                   0.15
 :time.spacer.solve.propagate         0.01
 :time.spacer.solve.reach             0.13
 :time.spacer.solve.reach.children    0.01
 :time.spacer.solve.reach.cluster     0.01
 :time.spacer.solve.reach.gen.global  0.01
 :time.spacer.solve.reach.gen.ind     0.01
 :time.spacer.solve.reach.is-reach    0.00)
(:max-memory   31.74
 :memory       31.33
 :num-allocs   26569912
 :rlimit-count 136760
 :time         0.16
 :total-time   0.18)
